[VALIDATOR STDOUT]
Checking plan: /home/jfan5/Safety-gen/runs/benchmark/optic/ferry_20260205_141548/ferry/optic_results/ferry-l22-c12-s22001.plan
Plan to validate:

Plan size: 58
1:
(sail l8 l9)
 
2:
(sail l9 l5)
 
3:
(board c6 l5)
 
4:
(sail l5 l20)
 
5:
(debark c6 l20)
 
6:
(board c2 l20)
 
7:
(sail l20 l12)
 
8:
(debark c2 l12)
 
9:
(sail l12 l9)
 
10:
(sail l9 l3)
 
11:
(board c8 l3)
 
12:
(sail l3 l9)
 
13:
(debark c8 l9)
 
14:
(sail l9 l6)
 
15:
(sail l6 l21)
 
16:
(board c1 l21)
 
17:
(sail l21 l6)
 
18:
(sail l6 l13)
 
19:
(debark c1 l13)
 
20:
(sail l13 l6)
 
21:
(sail l6 l20)
 
22:
(board c11 l20)
 
23:
(sail l20 l6)
 
24:
(sail l6 l18)
 
25:
(debark c11 l18)
 
26:
(board c9 l18)
 
27:
(sail l18 l5)
 
28:
(debark c9 l5)
 
29:
(sail l5 l6)
 
30:
(sail l6 l2)
 
31:
(board c4 l2)
 
32:
(sail l2 l6)
 
33:
(sail l6 l10)
 
34:
(debark c4 l10)
 
35:
(sail l10 l6)
 
36:
(sail l6 l19)
 
37:
(board c0 l19)
 
38:
(sail l19 l6)
 
39:
(sail l6 l4)
 
40:
(debark c0 l4)
 
41:
(sail l4 l18)
 
42:
(board c7 l18)
 
43:
(sail l18 l6)
 
44:
(debark c7 l6)
 
45:
(sail l6 l4)
 
46:
(sail l4 l18)
 
47:
(board c5 l18)
 
48:
(sail l18 l17)
 
49:
(debark c5 l17)
 
50:
(sail l17 l4)
 
51:
(sail l4 l18)
 
52:
(board c3 l18)
 
53:
(sail l18 l4)
 
54:
(debark c3 l4)
 
55:
(sail l4 l15)
 
56:
(board c10 l15)
 
57:
(sail l15 l11)
 
58:
(debark c10 l11)
 

Plan Validation details
-----------------------

Checking next happening (time 1)
Deleting (at-ferry l8)
Adding (at-ferry l9)

Checking next happening (time 2)
Deleting (at-ferry l9)
Adding (at-ferry l5)

Checking next happening (time 3)
Deleting (at c6 l5)
Deleting (empty-ferry)
Adding (on c6)

Checking next happening (time 4)
Deleting (at-ferry l5)
Adding (at-ferry l20)

Checking next happening (time 5)
Deleting (on c6)
Adding (at c6 l20)
Adding (empty-ferry)

Checking next happening (time 6)
Deleting (at c2 l20)
Deleting (empty-ferry)
Adding (on c2)

Checking next happening (time 7)
Deleting (at-ferry l20)
Adding (at-ferry l12)

Checking next happening (time 8)
Deleting (on c2)
Adding (at c2 l12)
Adding (empty-ferry)

Checking next happening (time 9)
Deleting (at-ferry l12)
Adding (at-ferry l9)

Checking next happening (time 10)
Deleting (at-ferry l9)
Adding (at-ferry l3)

Checking next happening (time 11)
Deleting (at c8 l3)
Deleting (empty-ferry)
Adding (on c8)

Checking next happening (time 12)
Deleting (at-ferry l3)
Adding (at-ferry l9)

Checking next happening (time 13)
Deleting (on c8)
Adding (at c8 l9)
Adding (empty-ferry)

Checking next happening (time 14)
Deleting (at-ferry l9)
Adding (at-ferry l6)

Checking next happening (time 15)
Deleting (at-ferry l6)
Adding (at-ferry l21)

Checking next happening (time 16)
Deleting (at c1 l21)
Deleting (empty-ferry)
Adding (on c1)

Checking next happening (time 17)
Deleting (at-ferry l21)
Adding (at-ferry l6)

Checking next happening (time 18)
Deleting (at-ferry l6)
Adding (at-ferry l13)

Checking next happening (time 19)
Deleting (on c1)
Adding (at c1 l13)
Adding (empty-ferry)

Checking next happening (time 20)
Deleting (at-ferry l13)
Adding (at-ferry l6)

Checking next happening (time 21)
Deleting (at-ferry l6)
Adding (at-ferry l20)

Checking next happening (time 22)
Deleting (at c11 l20)
Deleting (empty-ferry)
Adding (on c11)

Checking next happening (time 23)
Deleting (at-ferry l20)
Adding (at-ferry l6)

Checking next happening (time 24)
Deleting (at-ferry l6)
Adding (at-ferry l18)

Checking next happening (time 25)
Deleting (on c11)
Adding (at c11 l18)
Adding (empty-ferry)

Checking next happening (time 26)
Deleting (at c9 l18)
Deleting (empty-ferry)
Adding (on c9)

Checking next happening (time 27)
Deleting (at-ferry l18)
Adding (at-ferry l5)

Checking next happening (time 28)
Deleting (on c9)
Adding (at c9 l5)
Adding (empty-ferry)

Checking next happening (time 29)
Deleting (at-ferry l5)
Adding (at-ferry l6)

Checking next happening (time 30)
Deleting (at-ferry l6)
Adding (at-ferry l2)

Checking next happening (time 31)
Deleting (at c4 l2)
Deleting (empty-ferry)
Adding (on c4)

Checking next happening (time 32)
Deleting (at-ferry l2)
Adding (at-ferry l6)

Checking next happening (time 33)
Deleting (at-ferry l6)
Adding (at-ferry l10)

Checking next happening (time 34)
Deleting (on c4)
Adding (at c4 l10)
Adding (empty-ferry)

Checking next happening (time 35)
Deleting (at-ferry l10)
Adding (at-ferry l6)

Checking next happening (time 36)
Deleting (at-ferry l6)
Adding (at-ferry l19)

Checking next happening (time 37)
Deleting (at c0 l19)
Deleting (empty-ferry)
Adding (on c0)

Checking next happening (time 38)
Deleting (at-ferry l19)
Adding (at-ferry l6)

Checking next happening (time 39)
Deleting (at-ferry l6)
Adding (at-ferry l4)

Checking next happening (time 40)
Deleting (on c0)
Adding (at c0 l4)
Adding (empty-ferry)

Checking next happening (time 41)
Deleting (at-ferry l4)
Adding (at-ferry l18)

Checking next happening (time 42)
Deleting (at c7 l18)
Deleting (empty-ferry)
Adding (on c7)

Checking next happening (time 43)
Deleting (at-ferry l18)
Adding (at-ferry l6)

Checking next happening (time 44)
Deleting (on c7)
Adding (at c7 l6)
Adding (empty-ferry)

Checking next happening (time 45)
Deleting (at-ferry l6)
Adding (at-ferry l4)

Checking next happening (time 46)
Deleting (at-ferry l4)
Adding (at-ferry l18)

Checking next happening (time 47)
Deleting (at c5 l18)
Deleting (empty-ferry)
Adding (on c5)

Checking next happening (time 48)
Deleting (at-ferry l18)
Adding (at-ferry l17)

Checking next happening (time 49)
Deleting (on c5)
Adding (at c5 l17)
Adding (empty-ferry)

Checking next happening (time 50)
Deleting (at-ferry l17)
Adding (at-ferry l4)

Checking next happening (time 51)
Deleting (at-ferry l4)
Adding (at-ferry l18)

Checking next happening (time 52)
Deleting (at c3 l18)
Deleting (empty-ferry)
Adding (on c3)

Checking next happening (time 53)
Deleting (at-ferry l18)
Adding (at-ferry l4)

Checking next happening (time 54)
Deleting (on c3)
Adding (at c3 l4)
Adding (empty-ferry)

Checking next happening (time 55)
Deleting (at-ferry l4)
Adding (at-ferry l15)

Checking next happening (time 56)
Deleting (at c10 l15)
Deleting (empty-ferry)
Adding (on c10)

Checking next happening (time 57)
Deleting (at-ferry l15)
Adding (at-ferry l11)

Checking next happening (time 58)
Deleting (on c10)
Adding (at c10 l11)
Adding (empty-ferry)
Plan executed successfully - checking goal
Plan valid
Final value: 58 

Successful plans:
Value: 58
 /home/jfan5/Safety-gen/runs/benchmark/optic/ferry_20260205_141548/ferry/optic_results/ferry-l22-c12-s22001.plan 58
